0000000000000000
0000000000000000
0000000000000000
0000111111110000
0000000000010000
0000000000010000
0000000000010000
0000000000010000
0000000000010000
0000000011110000
0000001110010000
0000011000010000
0000110000010000
0000100000010000
0000000000010000
0000000000000000
